% From JaCoP's nonogramRepository/data061.nin
 rows = 20;
 row_rule_len = 6;
 row_rules = array2d(1..rows, 1..row_rule_len, 
[
 0,0,0,0,4,4,
 0,0,0,5,3,1,
 0,0,0,5,3,1,
 0,0,5,3,2,1,
 0,0,3,3,3,2,
 3,4,1,8,1,1,
 2,2,6,2,1,2,
 0,0,4,9,1,3,
 0,0,0,1,2,13,
 0,0,3,4,4,6,
 0,2,2,4,2,4,
 0,0,3,2,1,1,
 0,5,4,2,1,2,
 7,2,2,1,1,5,
 1,6,1,1,1,7,
 0,3,4,1,1,8,
 0,2,5,1,1,8,
 0,0,3,2,1,9,
 0,0,0,2,3,9,
 0,0,0,0,3,7
]);

 cols = 25;
 col_rule_len = 6;
 col_rules = array2d(1..cols, 1..col_rule_len, 
[
 0,0,0,0,7,2,
 0,0,0,7,2,2,
 0,0,0,6,1,5,
 0,4,1,2,4,2,
 3,1,1,1,3,3,
 0,1,1,1,6,1,
 1,1,2,2,4,2,
 0,0,1,2,4,6,
 0,2,1,2,3,4,
 0,0,0,1,4,2,
 0,0,0,4,4,4,
 0,0,0,3,2,1,
 0,0,0,0,6,4,
 0,0,0,0,8,2,
 0,0,0,0,9,3,
 0,0,0,0,3,7,
 2,1,1,2,4,2,
 0,0,1,1,5,5,
 0,0,2,2,3,6,
 0,0,0,1,3,6,
 0,0,0,0,4,7,
 0,0,0,1,3,7,
 0,0,0,1,3,8,
 0,0,0,1,3,8,
 0,0,0,0,4,6
]);

